NAME : portcgen-20-10
COMMENT : portcgen N=20, seed=10
TYPE : TSP
DIMENSION : 20
EDGE_WEIGHT_TYPE : EUC_2D
NODE_COORD_SECTION
1 -212444 354579
2 232704 156390
3 94813 95413
4 283310 -104030
5 14995 -62198
6 -43467 -10069
7 230435 51781
8 87374 99781
9 -347925 15424
10 -233585 222786
11 60638 -260035
12 -64707 77995
13 -256021 -218698
14 -143195 229546
15 113821 -84840
16 -270841 -139027
17 314848 28115
18 30208 -364239
19 -135185 -157919
20 32550 708361
